# Solution for model r10_t9_m1_7
# Finished Task: 9 / 9
# Makespan: 483.0, Total Distance: 114.0, Total Time: 0.8257
# R O S F
0 0 17 222.0 222.0
1 1 -1 148.0 148.0
2 2 11 188.0 188.0
3 3 14 236.0 236.0
4 4 -1 232.0 232.0
5 5 -1 244.0 244.0
6 6 10 191.0 191.0
7 7 18 181.0 181.0
8 8 16 220.0 220.0
9 9 -1 195.0 195.0
10 6 -1 326.0 353.0
11 2 -1 431.0 454.0
12 8 15 399.0 430.0
13 0 -1 455.0 480.0
14 3 -1 430.0 457.0
15 8 -1 457.0 483.0
16 8 12 353.0 378.0
17 0 13 294.0 326.0
18 7 -1 392.0 431.0
